w=39;
n=29;
W=[15, 5, 5, 4, 4, 5, 5, 4, 3, 5, 4, 3, 4, 3, 5, 3, 5, 4, 3, 3, 4, 5, 3, 4, 5, 3, 3, 4, 3];
H=[39, 18, 13, 16, 15, 11, 10, 12, 15, 8, 9, 11, 8, 10, 6, 9, 5, 6, 8, 7, 5, 4, 6, 4, 3, 5, 4, 3, 3];